This is Ipopt version 3.12.13, running with linear solver ma57.

Number of nonzeros in equality constraint Jacobian...:        0
Number of nonzeros in inequality constraint Jacobian.:    86544
Number of nonzeros in Lagrangian Hessian.............:       21

Total number of variables............................:        6
                     variables with only lower bounds:        0
                variables with lower and upper bounds:        6
                     variables with only upper bounds:        0
Total number of equality constraints.................:        0
Total number of inequality constraints...............:    14424
        inequality constraints with only lower bounds:        0
   inequality constraints with lower and upper bounds:        0
        inequality constraints with only upper bounds:    14424

iter    objective    inf_pr   inf_du lg(mu)  ||d||  lg(rg) alpha_du alpha_pr  ls
   0  1.0218219e-03 0.00e+00 1.66e+01   0.0 0.00e+00    -  0.00e+00 0.00e+00   0
   1  1.0173404e-03 0.00e+00 1.21e-02  -5.9 5.45e-04    -  9.88e-01 1.00e+00f  1
   2  6.4751865e-04 0.00e+00 1.80e-02  -1.9 2.72e+00    -  8.39e-02 4.76e-02f  1
   3  5.4663511e-04 0.00e+00 7.72e-04  -3.3 2.15e-02    -  9.90e-01 1.00e+00h  1
   4  2.4393350e-04 0.00e+00 3.18e-04  -4.1 8.40e-02    -  9.91e-01 1.00e+00h  1
   5  6.3751586e-05 0.00e+00 1.11e-03 -10.1 4.83e-02    -  7.08e-01 1.00e+00h  1
   6  7.6491142e-06 0.00e+00 1.44e-05  -5.6 3.21e-02    -  1.00e+00 1.00e+00h  1
   7  7.0868440e-07 0.00e+00 1.23e-05  -7.7 1.20e-02    -  9.50e-01 1.00e+00h  1
   8  4.6824907e-08 0.00e+00 4.81e-10  -8.9 4.39e-03    -  1.00e+00 1.00e+00h  1
Reallocating memory for MA57: lfact (632421)
   9  5.8767159e-10 0.00e+00 1.41e-13 -11.0 1.45e-03    -  1.00e+00 1.00e+00h  1

Number of Iterations....: 9

                                   (scaled)                 (unscaled)
Objective...............:   5.8767158790852247e-10    5.8767158790852247e-10
Dual infeasibility......:   1.4136115238441715e-13    1.4136115238441715e-13
Constraint violation....:   0.0000000000000000e+00    0.0000000000000000e+00
Complementarity.........:   6.5501204669612246e-08    6.5501204669612246e-08
Overall NLP error.......:   6.5501204669612246e-08    6.5501204669612246e-08


Number of objective function evaluations             = 10
Number of objective gradient evaluations             = 10
Number of equality constraint evaluations            = 0
Number of inequality constraint evaluations          = 10
Number of equality constraint Jacobian evaluations   = 0
Number of inequality constraint Jacobian evaluations = 10
Number of Lagrangian Hessian evaluations             = 9
Total CPU secs in IPOPT (w/o function evaluations)   =      0.148
Total CPU secs in NLP function evaluations           =      0.076

EXIT: Optimal Solution Found.
